c "644167.clq"
p edge 150 584
e 1 5
e 1 7
e 1 8
e 1 79
e 1 100
e 2 5
e 2 6
e 2 19
e 2 32
e 2 68
e 2 78
e 2 85
e 2 112
e 2 114
e 2 123
e 2 131
e 2 149
e 3 5
e 3 6
e 3 7
e 3 9
e 3 10
e 3 11
e 3 15
e 3 18
e 3 20
e 3 23
e 3 24
e 3 26
e 3 41
e 3 42
e 3 47
e 3 48
e 3 51
e 3 52
e 3 54
e 3 56
e 3 58
e 3 64
e 3 68
e 3 77
e 3 79
e 3 83
e 3 84
e 3 90
e 3 109
e 3 112
e 3 118
e 3 119
e 3 138
e 4 5
e 4 6
e 4 15
e 4 19
e 5 6
e 5 7
e 5 8
e 5 9
e 5 10
e 5 11
e 5 12
e 5 14
e 5 16
e 5 20
e 5 24
e 5 27
e 5 30
e 5 32
e 5 33
e 5 41
e 5 44
e 5 45
e 5 46
e 5 50
e 5 52
e 5 73
e 5 76
e 5 79
e 5 82
e 5 85
e 5 89
e 5 92
e 5 98
e 5 101
e 5 106
e 5 107
e 5 112
e 5 117
e 5 134
e 5 147
e 5 149
e 6 7
e 6 8
e 6 9
e 6 10
e 6 12
e 6 13
e 6 14
e 6 15
e 6 16
e 6 17
e 6 20
e 6 21
e 6 22
e 6 37
e 6 38
e 6 39
e 6 48
e 6 71
e 6 72
e 6 88
e 6 107
e 6 115
e 6 135
e 6 140
e 6 141
e 7 8
e 7 9
e 7 10
e 7 11
e 7 13
e 7 14
e 7 16
e 7 19
e 7 21
e 7 24
e 7 25
e 7 26
e 7 28
e 7 30
e 7 31
e 7 32
e 7 34
e 7 38
e 7 39
e 7 40
e 7 43
e 7 50
e 7 53
e 7 54
e 7 58
e 7 61
e 7 63
e 7 64
e 7 66
e 7 69
e 7 71
e 7 77
e 7 81
e 7 86
e 7 96
e 7 98
e 7 99
e 7 104
e 7 120
e 7 125
e 7 128
e 7 129
e 7 134
e 7 136
e 7 143
e 7 144
e 8 12
e 8 29
e 8 42
e 8 55
e 8 57
e 8 84
e 8 92
e 8 116
e 8 134
e 8 145
e 9 13
e 9 16
e 9 18
e 9 19
e 9 22
e 9 23
e 9 35
e 9 37
e 9 38
e 9 43
e 9 47
e 9 53
e 9 73
e 9 75
e 9 76
e 9 86
e 9 87
e 9 88
e 9 97
e 9 115
e 9 127
e 9 129
e 9 139
e 10 11
e 10 13
e 10 17
e 10 22
e 10 35
e 10 36
e 10 47
e 10 56
e 10 66
e 10 92
e 10 93
e 10 94
e 10 100
e 10 113
e 10 122
e 10 133
e 10 136
e 10 143
e 11 12
e 11 21
e 11 23
e 11 25
e 11 27
e 11 28
e 11 29
e 11 30
e 11 36
e 11 38
e 11 52
e 11 64
e 11 67
e 11 69
e 11 70
e 11 72
e 11 75
e 11 77
e 11 80
e 11 83
e 11 96
e 11 102
e 11 105
e 11 126
e 11 137
e 12 20
e 12 21
e 12 23
e 12 27
e 12 31
e 12 34
e 12 41
e 12 42
e 12 45
e 12 50
e 12 66
e 12 74
e 12 87
e 12 121
e 12 127
e 12 129
e 12 142
e 13 14
e 13 15
e 13 34
e 13 51
e 13 57
e 13 60
e 13 85
e 13 100
e 13 112
e 13 127
e 14 24
e 14 28
e 14 29
e 14 31
e 14 44
e 14 71
e 14 88
e 14 97
e 14 102
e 14 109
e 14 118
e 14 137
e 15 17
e 15 18
e 15 25
e 15 48
e 15 61
e 15 65
e 15 67
e 15 72
e 15 73
e 15 81
e 15 84
e 15 87
e 15 101
e 15 136
e 15 142
e 15 144
e 15 150
e 16 17
e 16 26
e 16 35
e 16 37
e 16 49
e 16 56
e 16 61
e 16 62
e 16 63
e 16 68
e 16 72
e 16 75
e 16 78
e 16 81
e 16 85
e 16 90
e 16 93
e 16 110
e 16 113
e 16 134
e 16 141
e 17 18
e 17 22
e 17 31
e 17 32
e 17 33
e 17 37
e 17 90
e 17 91
e 17 111
e 17 148
e 18 34
e 18 35
e 18 36
e 18 39
e 18 51
e 18 54
e 18 80
e 18 104
e 18 118
e 18 120
e 18 123
e 18 137
e 18 138
e 18 139
e 19 29
e 19 48
e 19 54
e 19 59
e 19 81
e 19 83
e 19 90
e 19 117
e 19 119
e 19 129
e 20 30
e 20 45
e 20 55
e 20 61
e 20 69
e 20 75
e 20 101
e 20 102
e 20 139
e 20 143
e 21 44
e 21 49
e 21 86
e 21 107
e 22 25
e 22 26
e 22 39
e 22 59
e 22 70
e 22 82
e 22 122
e 22 124
e 22 128
e 23 66
e 23 91
e 24 51
e 24 65
e 24 80
e 24 126
e 25 27
e 25 33
e 25 70
e 25 89
e 25 133
e 26 43
e 26 55
e 26 56
e 26 57
e 26 62
e 26 67
e 26 122
e 26 123
e 26 150
e 27 28
e 27 43
e 27 44
e 27 47
e 27 52
e 27 55
e 27 97
e 27 115
e 27 121
e 27 122
e 27 131
e 27 138
e 28 33
e 28 40
e 28 46
e 28 50
e 28 63
e 28 96
e 29 49
e 29 59
e 29 69
e 29 106
e 30 46
e 30 103
e 30 136
e 31 49
e 31 59
e 31 68
e 31 71
e 31 76
e 31 95
e 31 98
e 31 104
e 31 148
e 32 74
e 32 95
e 32 119
e 32 130
e 33 36
e 34 40
e 34 62
e 34 91
e 34 107
e 34 140
e 35 65
e 35 83
e 35 140
e 36 82
e 36 124
e 37 74
e 37 77
e 37 111
e 37 120
e 38 40
e 38 41
e 38 46
e 38 53
e 38 57
e 38 60
e 38 89
e 38 125
e 39 94
e 39 99
e 39 128
e 40 63
e 40 105
e 41 42
e 41 127
e 42 53
e 42 82
e 43 58
e 43 74
e 43 103
e 43 106
e 43 110
e 43 138
e 44 45
e 44 106
e 45 109
e 47 58
e 47 135
e 48 94
e 48 126
e 48 128
e 48 141
e 49 64
e 49 148
e 50 62
e 50 78
e 50 80
e 50 130
e 51 87
e 51 89
e 51 108
e 51 117
e 51 146
e 53 113
e 53 116
e 55 60
e 55 84
e 55 101
e 55 131
e 56 88
e 56 92
e 56 115
e 57 65
e 57 131
e 57 147
e 58 60
e 58 124
e 58 147
e 59 73
e 59 78
e 59 130
e 59 133
e 60 86
e 60 100
e 60 108
e 60 144
e 61 99
e 62 146
e 63 103
e 63 143
e 64 67
e 64 70
e 64 120
e 64 139
e 64 140
e 65 76
e 65 102
e 65 104
e 65 126
e 65 144
e 65 150
e 66 121
e 67 91
e 67 110
e 70 79
e 74 93
e 74 121
e 75 132
e 77 110
e 77 125
e 77 135
e 78 108
e 78 109
e 81 93
e 81 114
e 81 116
e 82 99
e 82 114
e 82 145
e 84 132
e 85 95
e 85 97
e 85 105
e 85 111
e 85 137
e 85 142
e 86 146
e 87 111
e 88 114
e 89 105
e 89 113
e 89 117
e 89 146
e 90 95
e 90 96
e 91 94
e 91 118
e 91 141
e 92 132
e 93 98
e 93 103
e 95 124
e 96 145
e 99 133
e 103 125
e 103 147
e 103 149
e 104 119
e 105 135
e 106 108
e 106 132
e 106 149
e 108 116
e 109 148
e 115 123
e 116 142
e 122 130
e 128 145
e 148 150
